[148, 88, 90, 62, 78, 63, 65, 63, 65, 61, 254, 244, 257, 259, 260, 250, 247, 246, 258, 246, 1041, 984, 985, 1029, 1042, 1011, 988, 978, 997, 997, 3859, 3938, 4538, 3751, 3873, 3780, 3803, 3942, 3785, 3787, 14931, 14921, 16163, 17332, 16575, 16995, 17017, 15761, 17036, 16645]
